NAME: tsp_479
COMMENT: Random TSP instance
TYPE: TSP
DIMENSION: 50
EDGE_WEIGHT_TYPE: EUC_2D
NODE_COORD_SECTION
1 34 811
2 457 73
3 379 685
4 0 526
5 784 771
6 174 258
7 225 722
8 662 829
9 820 436
10 708 154
11 136 705
12 577 956
13 870 824
14 714 197
15 432 46
16 992 815
17 362 58
18 467 201
19 836 383
20 389 722
21 109 444
22 523 876
23 223 876
24 867 307
25 483 966
26 997 134
27 778 798
28 305 508
29 479 405
30 558 946
31 293 604
32 662 458
33 415 835
34 207 945
35 503 17
36 29 392
37 875 641
38 695 134
39 688 708
40 242 427
41 671 773
42 109 21
43 982 242
44 704 897
45 838 786
46 466 45
47 668 425
48 166 149
49 433 784
50 839 845
